40
1 0 28
2 0 7
2 1 6
3 0 15
3 1 39
3 2 9
4 0 39
4 1 4
4 2 7
4 3 18
5 0 26
5 1 18
5 2 8
5 3 30
5 4 14
6 0 32
6 1 33
6 2 12
6 3 35
6 4 18
6 5 36
7 0 5
7 1 25
7 2 9
7 3 24
7 4 9
7 5 34
7 6 32
8 0 37
8 1 11
8 2 39
8 3 13
8 4 3
8 5 13
8 6 3
8 7 12
9 0 36
9 1 34
9 2 31
9 3 35
9 4 4
9 5 30
9 6 5
9 7 26
9 8 14
10 0 30
10 1 15
10 2 38
10 3 34
10 4 31
10 5 11
10 6 8
10 7 4
10 8 21
10 9 39
11 0 25
11 1 15
11 2 5
11 3 9
11 4 21
11 5 32
11 6 39
11 7 9
11 8 34
11 9 24
11 10 25
12 0 2
12 1 38
12 2 2
12 3 27
12 4 34
12 5 22
12 6 8
12 7 3
12 8 15
12 9 5
12 10 16
12 11 34
13 0 39
13 1 37
13 2 16
13 3 31
13 4 16
13 5 21
13 6 38
13 7 40
13 8 26
13 9 3
13 10 37
13 11 38
13 12 19
14 0 28
14 1 37
14 2 34
14 3 1
14 4 20
14 5 38
14 6 34
14 7 15
14 8 38
14 9 33
14 10 12
14 11 17
14 12 10
14 13 1
15 0 1
15 1 10
15 2 16
15 3 23
15 4 19
15 5 19
15 6 38
15 7 39
15 8 40
15 9 2
15 10 18
15 11 6
15 12 32
15 13 2
15 14 6
16 0 40
16 1 6
16 2 34
16 3 40
16 4 11
16 5 10
16 6 37
16 7 35
16 8 22
16 9 8
16 10 24
16 11 27
16 12 25
16 13 25
16 14 31
16 15 18
17 0 19
17 1 24
17 2 24
17 3 39
17 4 2
17 5 35
17 6 20
17 7 14
17 8 39
17 9 29
17 10 30
17 11 18
17 12 11
17 13 25
17 14 38
17 15 19
17 16 26
18 0 1
18 1 3
18 2 29
18 3 29
18 4 24
18 5 9
18 6 18
18 7 27
18 8 29
18 9 16
18 10 23
18 11 29
18 12 12
18 13 1
18 14 11
18 15 31
18 16 33
18 17 10
19 0 37
19 1 35
19 2 30
19 3 28
19 4 2
19 5 19
19 6 13
19 7 24
19 8 34
19 9 31
19 10 6
19 11 25
19 12 2
19 13 6
19 14 33
19 15 7
19 16 17
19 17 39
19 18 34
20 0 33
20 1 34
20 2 8
20 3 27
20 4 23
20 5 25
20 6 8
20 7 5
20 8 6
20 9 35
20 10 8
20 11 39
20 12 29
20 13 5
20 14 34
20 15 19
20 16 36
20 17 31
20 18 9
20 19 21
21 0 12
21 1 7
21 2 33
21 3 17
21 4 20
21 5 23
21 6 34
21 7 19
21 8 21
21 9 9
21 10 17
21 11 36
21 12 2
21 13 15
21 14 25
21 15 35
21 16 37
21 17 30
21 18 33
21 19 18
21 20 35
22 0 36
22 1 6
22 2 3
22 3 14
22 4 30
22 5 21
22 6 23
22 7 30
22 8 28
22 9 17
22 10 36
22 11 37
22 12 22
22 13 11
22 14 7
22 15 9
22 16 39
22 17 5
22 18 28
22 19 23
22 20 8
22 21 6
23 0 2
23 1 28
23 2 13
23 3 39
23 4 8
23 5 4
23 6 7
23 7 40
23 8 22
23 9 21
23 10 37
23 11 39
23 12 10
23 13 40
23 14 26
23 15 37
23 16 7
23 17 34
23 18 27
23 19 33
23 20 10
23 21 39
23 22 7
24 0 21
24 1 13
24 2 23
24 3 32
24 4 12
24 5 26
24 6 35
24 7 34
24 8 29
24 9 13
24 10 34
24 11 19
24 12 26
24 13 40
24 14 23
24 15 37
24 16 23
24 17 3
24 18 38
24 19 31
24 20 36
24 21 7
24 22 6
24 23 32
25 0 26
25 1 11
25 2 21
25 3 27
25 4 20
25 5 40
25 6 6
25 7 28
25 8 17
25 9 16
25 10 9
25 11 21
25 12 20
25 13 5
25 14 40
25 15 18
25 16 7
25 17 36
25 18 32
25 19 16
25 20 12
25 21 18
25 22 20
25 23 4
25 24 34
26 0 18
26 1 17
26 2 38
26 3 38
26 4 20
26 5 25
26 6 27
26 7 26
26 8 14
26 9 30
26 10 11
26 11 28
26 12 27
26 13 11
26 14 23
26 15 7
26 16 32
26 17 32
26 18 3
26 19 23
26 20 7
26 21 13
26 22 19
26 23 35
26 24 21
26 25 38
27 0 39
27 1 35
27 2 36
27 3 27
27 4 16
27 5 20
27 6 11
27 7 27
27 8 6
27 9 32
27 10 7
27 11 26
27 12 23
27 13 6
27 14 24
27 15 4
27 16 39
27 17 38
27 18 6
27 19 12
27 20 23
27 21 13
27 22 16
27 23 30
27 24 6
27 25 40
27 26 12
28 0 3
28 1 1
28 2 17
28 3 38
28 4 32
28 5 28
28 6 15
28 7 18
28 8 16
28 9 18
28 10 15
28 11 29
28 12 22
28 13 18
28 14 29
28 15 37
28 16 26
28 17 8
28 18 26
28 19 14
28 20 26
28 21 26
28 22 31
28 23 11
28 24 5
28 25 4
28 26 22
28 27 31
29 0 7
29 1 28
29 2 35
29 3 2
29 4 6
29 5 7
29 6 24
29 7 12
29 8 27
29 9 6
29 10 34
29 11 9
29 12 15
29 13 12
29 14 17
29 15 37
29 16 7
29 17 39
29 18 21
29 19 25
29 20 10
29 21 38
29 22 28
29 23 25
29 24 33
29 25 37
29 26 28
29 27 2
29 28 21
30 0 25
30 1 25
30 2 29
30 3 33
30 4 10
30 5 27
30 6 9
30 7 3
30 8 18
30 9 11
30 10 19
30 11 34
30 12 15
30 13 11
30 14 31
30 15 27
30 16 29
30 17 29
30 18 17
30 19 26
30 20 3
30 21 17
30 22 30
30 23 2
30 24 12
30 25 37
30 26 14
30 27 15
30 28 25
30 29 6
31 0 8
31 1 2
31 2 3
31 3 13
31 4 27
31 5 39
31 6 16
31 7 11
31 8 21
31 9 35
31 10 8
31 11 11
31 12 22
31 13 11
31 14 12
31 15 19
31 16 23
31 17 23
31 18 27
31 19 10
31 20 23
31 21 4
31 22 34
31 23 35
31 24 28
31 25 29
31 26 13
31 27 34
31 28 34
31 29 9
31 30 6
32 0 11
32 1 21
32 2 37
32 3 11
32 4 12
32 5 39
32 6 13
32 7 5
32 8 31
32 9 29
32 10 37
32 11 2
32 12 11
32 13 12
32 14 23
32 15 6
32 16 38
32 17 13
32 18 20
32 19 28
32 20 34
32 21 37
32 22 21
32 23 24
32 24 25
32 25 11
32 26 28
32 27 39
32 28 31
32 29 14
32 30 17
32 31 33
33 0 40
33 1 12
33 2 40
33 3 15
33 4 3
33 5 19
33 6 34
33 7 12
33 8 20
33 9 9
33 10 2
33 11 6
33 12 31
33 13 15
33 14 38
33 15 32
33 16 39
33 17 20
33 18 38
33 19 13
33 20 5
33 21 25
33 22 28
33 23 3
33 24 21
33 25 3
33 26 10
33 27 22
33 28 33
33 29 7
33 30 1
33 31 19
33 32 32
34 0 28
34 1 26
34 2 6
34 3 32
34 4 29
34 5 35
34 6 40
34 7 32
34 8 17
34 9 8
34 10 32
34 11 37
34 12 37
34 13 1
34 14 10
34 15 9
34 16 23
34 17 13
34 18 20
34 19 13
34 20 34
34 21 4
34 22 1
34 23 18
34 24 35
34 25 13
34 26 6
34 27 30
34 28 13
34 29 40
34 30 26
34 31 26
34 32 6
34 33 23
35 0 21
35 1 14
35 2 25
35 3 30
35 4 38
35 5 1
35 6 3
35 7 20
35 8 29
35 9 21
35 10 36
35 11 35
35 12 40
35 13 39
35 14 21
35 15 38
35 16 38
35 17 12
35 18 8
35 19 32
35 20 21
35 21 8
35 22 2
35 23 17
35 24 39
35 25 32
35 26 32
35 27 6
35 28 5
35 29 40
35 30 32
35 31 35
35 32 37
35 33 1
35 34 23
36 0 39
36 1 38
36 2 18
36 3 31
36 4 3
36 5 19
36 6 33
36 7 20
36 8 30
36 9 18
36 10 31
36 11 12
36 12 34
36 13 25
36 14 16
36 15 3
36 16 15
36 17 18
36 18 17
36 19 39
36 20 23
36 21 33
36 22 30
36 23 2
36 24 1
36 25 11
36 26 21
36 27 38
36 28 32
36 29 26
36 30 24
36 31 3
36 32 39
36 33 11
36 34 4
36 35 12
37 0 3
37 1 37
37 2 20
37 3 20
37 4 6
37 5 13
37 6 20
37 7 3
37 8 31
37 9 3
37 10 12
37 11 5
37 12 32
37 13 33
37 14 22
37 15 19
37 16 8
37 17 17
37 18 26
37 19 15
37 20 31
37 21 22
37 22 9
37 23 13
37 24 31
37 25 15
37 26 9
37 27 3
37 28 1
37 29 2
37 30 30
37 31 2
37 32 18
37 33 21
37 34 23
37 35 30
37 36 28
38 0 3
38 1 6
38 2 33
38 3 1
38 4 36
38 5 40
38 6 27
38 7 16
38 8 9
38 9 26
38 10 5
38 11 1
38 12 36
38 13 37
38 14 11
38 15 5
38 16 28
38 17 7
38 18 26
38 19 10
38 20 18
38 21 9
38 22 13
38 23 6
38 24 27
38 25 28
38 26 18
38 27 35
38 28 36
38 29 11
38 30 23
38 31 37
38 32 10
38 33 34
38 34 22
38 35 16
38 36 4
38 37 29
39 0 2
39 1 29
39 2 8
39 3 13
39 4 30
39 5 39
39 6 6
39 7 4
39 8 37
39 9 9
39 10 18
39 11 19
39 12 36
39 13 23
39 14 15
39 15 5
39 16 34
39 17 5
39 18 10
39 19 34
39 20 14
39 21 31
39 22 5
39 23 37
39 24 3
39 25 13
39 26 39
39 27 29
39 28 35
39 29 4
39 30 22
39 31 30
39 32 3
39 33 16
39 34 29
39 35 26
39 36 34
39 37 4
39 38 11
